c --- [ banner ] -------------------------------------------------------------
c 
c CaDiCaL Radically Simplified CDCL SAT Solver
c Copyright (c) 2016-2021 A. Biere, M. Fleury, N. Froleyks
c 
c Version 1.5.2 a5f15211db36c3956764e18194dd5bd63bf3b5e6
c g++ (GCC) 9.3.0 -Wall -Wextra -O3 -DNDEBUG
c Fri Oct 21 01:27:37 EDT 2022 Linux gra-login3 3.10.0-1160.66.1.el7.x86_64 x86_64
c 
c --- [ limit ] --------------------------------------------------------------
c 
c setting conflict limit to 200000 conflicts (due to '200000')
c 
c --- [ parsing input ] ------------------------------------------------------
c 
c reading DIMACS file from '33.cubes2419.adj'
c opening file to read '33.cubes2419.adj'
c found 'p cnf 6160 1595474' header
c parsed 1595474 clauses in 19.65 seconds process time
c closing file '33.cubes2419.adj'
c after reading 1457566763 bytes 1390.0 MB
c 
c --- [ options ] ------------------------------------------------------------
c 
c all options are set to their default value
c 
c --- [ solving ] ------------------------------------------------------------
c 
c time measured in process time since initialization
c 
c  seconds    reductions  redundant   irredundant
c          MB     restarts       trail       variables
c            level   conflicts       glue         remaining
c 
c * 19.65 1375  0 0   0    0    0  0% 0 1595422 2451 40%
c { 21.18 1445  0 0   0    0    0  0% 0 1595422 2451 40%
c i 22.11 1463 1214 0   0   15   12 38% 3 1595422 2450 40%
c i 22.32 1465 1151 0   0   33   27 36% 2 1595422 2431 39%
c i 22.94 1474 950 0   2   50   41 38% 23 1595422 2415 39%
c i 22.96 1474 878 0   3   54   44 37% 26 1595422 2414 39%
c i 22.99 1475 860 0   4   55   44 37% 26 1595422 2413 39%
c i 22.99 1475 843 0   4   56   44 37% 25 1595422 2412 39%
c i 23.81 1483 545 0  12   90   72 33% 31 1595422 2411 39%
c i 23.88 1485 496 0  13  102   81 31% 28 1595422 2401 39%
c i 24.10 1487 493 0  13  103   81 31% 27 1595422 2400 39%
c i 24.11 1487 483 0  13  106   83 31% 26 1595422 2399 39%
c i 24.27 1487 450 0  13  120   92 30% 25 1595422 2398 39%
c i 24.56 1488 421 0  13  136  104 30% 28 1595422 2396 39%
c i 24.94 1488 391 0  17  154  119 29% 31 1595422 2387 39%
c i 25.05 1488 383 0  19  159  121 29% 30 1595422 2385 39%
c i 25.46 1489 369 0  21  171  130 29% 29 1595422 2372 39%
c i 25.99 1489 328 0  30  203  160 29% 34 1595422 2368 38%
c i 26.03 1489 325 0  31  205  161 29% 33 1595422 2367 38%
c i 26.03 1489 323 0  31  206  161 29% 33 1595422 2366 38%
c 
c  seconds     reductions  redundant    irredundant
c          MB      restarts       trail        variables
c             level   conflicts       glue          remaining
c 
c i 26.04 1489 319 0  32  209  163 29% 33 1595422 2365 38%
c i 26.06 1489 316 0  32  212  163 29% 32 1595422 2362 38%
c i 26.06 1489 314 0  33  215  164 28% 33 1595422 2360 38%
c i 26.16 1489 297 0  37  239  179 28% 40 1595422 2359 38%
c i 26.16 1489 292 0  38  246  183 28% 41 1595422 2358 38%
c i 26.17 1489 291 0  39  247  183 28% 41 1595422 2357 38%
c i 26.36 1490 286 0  41  255  190 28% 41 1595422 2352 38%
c i 26.39 1490 282 0  42  260  194 28% 41 1595422 2345 38%
c - 31.13 1455 258 1  52  300  228 28% 41 130786 2345 38%
c i 31.31 1403 255 1  52  304  231 28% 41 130786 2344 38%
c i 31.45 1403 226 1  53  345  259 28% 38 130786 2343 38%
c i 31.53 1403 216 1  53  367  279 28% 38 130786 2342 38%
c i 31.55 1403 214 1  53  372  283 28% 38 130786 2341 38%
c i 31.69 1403 201 1  54  416  314 28% 39 130786 2340 38%
c i 31.86 1403 182 1  59  476  363 29% 38 130786 2339 38%
c i 31.93 1403 148 1  59  627  482 29% 36 130786 2338 38%
c i 31.96 1403 147 1  59  638  490 29% 36 130786 2337 38%
c i 31.98 1403 147 1  59  650  501 29% 36 130786 2336 38%
c i 32.00 1403 146 1  60  660  509 29% 36 130786 2335 38%
c i 32.03 1403 145 1  63  667  515 29% 36 130786 2334 38%
c 
c  seconds     reductions  redundant   irredundant
c          MB      restarts       trail       variables
c             level   conflicts       glue         remaining
c 
c i 32.08 1403 141 1  67  700  543 29% 37 130786 2333 38%
c i 32.11 1403 139 1  71  719  553 29% 37 130786 2332 38%
c i 32.13 1403 137 1  72  729  562 29% 37 130786 2331 38%
c i 32.13 1403 137 1  72  731  563 29% 37 130786 2330 38%
c i 32.16 1403 130 1  72  782  605 29% 36 130786 2329 38%
c i 32.16 1403 128 1  72  799  618 29% 36 130786 2328 38%
c i 32.20 1403 121 1  72  861  670 29% 35 130786 2327 38%
c i 32.22 1403 118 1  72  897  697 29% 35 130786 2326 38%
c i 32.24 1403 117 1  73  919  716 29% 35 130786 2325 38%
c i 32.26 1403 114 1  73  953  736 29% 35 130786 2324 38%
c i 32.26 1403 114 1  73  954  736 29% 35 130786 2323 38%
c i 32.27 1403 113 1  73  963  742 29% 35 130786 2322 38%
c - 32.54 1470 112 2  73  970  654 29% 35 130717 2322 38%
c } 32.60 1470 110 2  73 1000  680 30% 34 130717 2322 38%
c [ 32.60 1470  0 2  73 1000  680  0% 0 130717 2322 38%
c O 32.60 1470 19 2  73 1003  683 25% 13 130717 2322 38%
c i 32.70 1470 22 2  73 1142  765 33% 20 130717 2321 38%
c i 32.71 1470 22 2  73 1148  768 33% 19 130717 2320 38%
c i 32.71 1470 22 2  73 1156  769 33% 19 130717 2319 38%
c i 32.73 1470 22 2  73 1225  806 33% 20 130717 2318 38%
c 
c  seconds    reductions  redundant   irredundant
c          MB     restarts       trail       variables
c            level   conflicts       glue         remaining
c 
c i 32.75 1470 22 2  73 1302  843 33% 20 130717 2317 38%
c i 32.75 1470 22 2  73 1305  843 33% 20 130717 2316 38%
c i 32.77 1470 23 2  73 1368  873 33% 20 130717 2315 38%
c i 32.77 1470 23 2  73 1372  876 33% 20 130717 2314 38%
c i 32.78 1470 23 2  73 1409  898 33% 20 130717 2313 38%
c i 32.86 1470 24 2  73 1582 1004 32% 20 130717 2312 38%
c i 32.92 1470 24 2  73 1714 1069 32% 20 130717 2311 38%
c - 33.20 1469 24 3  73 1976  841 32% 21 130684 2311 38%
c i 33.42 1469 25 3  74 2297 1033 31% 22 130684 2310 38%
c i 33.54 1469 25 3  74 2652 1234 31% 21 130684 2309 37%
c i 33.55 1469 25 3  74 2690 1258 31% 21 130684 2308 37%
c i 33.60 1469 24 3  74 2818 1315 31% 21 130684 2307 37%
c i 33.60 1469 24 3  74 2821 1314 31% 21 130684 2306 37%
c i 33.60 1469 24 3  74 2822 1314 31% 21 130684 2305 37%
c ] 33.64 1469 24 3  74 3003 1410 31% 21 130684 2305 37%
c { 33.64 1469 110 3  74 3003 1410 30% 34 130684 2305 37%
c F 33.82 1468 109 3  74 3004 1411 24% 34 130666 2305 37%
c i 33.89 1468 108 3  74 3022 1428 49% 34 130666 2304 37%
c i 33.93 1468 107 3  74 3040 1443 50% 34 130666 2303 37%
c i 33.96 1468 104 3  74 3077 1474 50% 33 130666 2302 37%
c 
c  seconds    reductions  redundant   irredundant
c          MB     restarts       trail       variables
c            level   conflicts       glue         remaining
c 
c i 34.01 1468 97 3  74 3204 1565 50% 32 130666 2301 37%
c i 34.01 1468 97 3  74 3205 1565 50% 32 130666 2300 37%
c i 34.02 1468 96 3  74 3214 1570 50% 32 130666 2299 37%
c i 34.03 1468 95 3  74 3236 1583 50% 32 130666 2298 37%
c i 34.03 1468 95 3  74 3249 1591 50% 32 130666 2297 37%
c - 34.19 1405 91 4  74 3316 1237 50% 32 130642 2297 37%
c i 34.27 1405 89 4  74 3364 1260 50% 31 130642 2296 37%
c i 34.27 1405 89 4  74 3366 1261 50% 31 130642 2295 37%
c i 34.28 1405 89 4  74 3369 1263 50% 31 130642 2294 37%
c i 34.31 1405 88 4  74 3389 1274 50% 31 130642 2293 37%
c i 34.39 1405 82 4  74 3518 1360 50% 30 130642 2292 37%
c i 34.44 1405 79 4  74 3590 1401 50% 29 130642 2291 37%
c i 34.51 1405 74 4  74 3715 1480 51% 28 130642 2290 37%
c i 34.79 1405 58 4  77 4415 1935 51% 24 130642 2289 37%
c i 34.82 1405 56 4  77 4558 2027 51% 24 130642 2288 37%
c - 35.07 1406 51 5  78 4990 1645 51% 23 130615 2288 37%
c d 35.35 1406 51 5  78 5001 1649 51% 22 122891 2277 37%
c 2 35.39 1406 51 5  78 5001 3186 51% 22 122877 2277 37%
c p 38.79 1406 51 5  78 5001 7227 51% 22 122877 2193 36%
c # 40.41 1406 46 5 153 6007 7923 51% 22 122877 2193 36%
c 
c  seconds    reductions  redundant   irredundant
c          MB     restarts       trail       variables
c            level   conflicts       glue         remaining
c 
c - 41.44 1413 41 6 153 6998 2585 51% 21 122632 2193 36%
c } 41.47 1413 41 6 153 7010 2594 51% 21 122632 2193 36%
c [ 41.47 1413 24 6 153 7010 2594 84% 21 122632 2193 36%
c - 42.78 1413 24 7 155 9285 2821 66% 21 122632 2193 36%
c I 43.28 1413 24 7 155 10009 3259 63% 21 122632 2193 36%
c - 44.88 1413 46 8 157 11897 3378 59% 37 122632 2193 36%
c ] 45.56 1413 52 8 157 12834 4101 58% 42 122632 2193 36%
c 1 45.56 1413 52 8 157 12834 4101 58% 42 122632 2193 36%
c 
c --- [ writing output ] -----------------------------------------------------
c 
c writing simplified CNF to DIMACS file 'simp/33.cubes2419.adj.simp1'
c * 45.56 1413 52 8 157 12834 4101 58% 42 122632 2193 36%
c opening file to write 'simp/33.cubes2419.adj.simp1'
c writing 'p cnf 6160 122632' header
c closing file 'simp/33.cubes2419.adj.simp1'
c after writing 66146161 bytes 63.1 MB
c wrote 122632 clauses in 0.47 seconds process time
c 
c --- [ writing extension ] --------------------------------------------------
c 
c writing extension stack to 'simp/33.cubes2419.adj.ext1'
c opening file to write 'simp/33.cubes2419.adj.ext1'
c closing file 'simp/33.cubes2419.adj.ext1'
c after writing 12359 bytes 0.0 MB
c wrote 834 witnesses in 0.00 seconds process time
c 
c --- [ result ] -------------------------------------------------------------
c 
s SATISFIABLE
c 
c --- [ run-time profiling ] -------------------------------------------------
c 
c process time taken by individual solving procedures
c (percentage relative to process time for solving)
c 
c        22.21   85.75% search
c        19.65   75.86% parse
c        15.55   60.04% unstable
c         5.13   19.81% stable
c         3.69   14.25% simplify
c         3.40   13.14% probe
c         1.53    5.90% lucky
c         0.03    0.11% ternary
c   =================================
c        25.90   56.28% solve
c 
c last line shows process time for solving
c (percentage relative to total process time)
c 
c --- [ statistics ] ---------------------------------------------------------
c 
c chronological:              2431        18.94 %  of conflicts
c conflicts:                 12834       495.44    per second
c decisions:                 31705      1223.94    per second
c fixed:                       812        13.18 %  of all variables
c learned:                   12565        97.90 %  per conflict
c learned_lits:            2521429       100.00 %  learned literals
c minimized:                     0         0.00 %  learned literals
c shrunken:                1680748        66.66 %  learned literals
c minishrunken:             133486         5.29 %  learned literals
c propagations:            1761282         0.07 M  per second
c reduced:                    4741        36.94 %  per conflict
c rephased:                      4      3208.50    interval
c restarts:                    157        81.75    interval
c stabilizing:                   2        60.99 %  of conflicts
c substituted:                  11         0.18 %  of all variables
c subsumed:                   3756         0.11 %  of all clauses
c ternary:                    1537         0.64 %  of resolved
c weakened:                     22         2.00    average size
c 
c seconds are measured in process time for solving
c 
c --- [ resources ] ----------------------------------------------------------
c 
c total process time since initialization:        46.03    seconds
c total real time since initialization:           67.46    seconds
c maximum resident set size of process:         1534.94    MB
c 
c --- [ shutting down ] ------------------------------------------------------
c 
c exit 10
WARNING! DIMACS header mismatch: wrong number of variables.
============================[ Problem Statistics ]=============================
|                                                                             |
|  Number of variables:          6120                                         |
|  Number of clauses:          122634                                         |
|  Parse time:                   0.88 s                                       |
|  Simplification time:          0.02 s                                       |
|                                                                             |
============================[ Search Statistics ]====================================================
| Conflicts |          ORIGINAL         |          LEARNT          | Num Sols |      SUBGRAPHS      |
|           |    Vars  Clauses Literals |    Limit  Clauses Lit/Cl |          | Canonical Noncanon. |
=====================================================================================================
|       235 |    6028   122769 13902040 |     2000      235     51 |        0 |        40       135 |
|       441 |    6028   122825 13903124 |     2000      441     75 |        0 |        63       191 |
|       675 |    6028   122834 13903340 |     2000      675     94 |        0 |        76       200 |
|      1018 |    6028   122840 13903796 |     2000     1018    109 |        0 |        81       206 |
|      1656 |    6028   122972 13905403 |     2000     1656    103 |        0 |        90       338 |
|      2430 |    6028   122987 13905776 |     3602     1432     78 |        0 |       109       353 |
|      3625 |    6028   123043 13908361 |     3602     2627    101 |        0 |       129       409 |
|      5547 |    6028   123257 13911740 |     5001     2748     64 |        0 |       191       623 |
|      8145 |    6028   123293 13912467 |     6301     2846     53 |        0 |       214       659 |
|     12212 |    6028   123516 13916973 |     7553     3765     54 |        0 |       284       882 |
|     18291 |    6028   123829 13922710 |     8782     6073     69 |        0 |       332      1195 |
|     27206 |    6028   124095 13928634 |    11202     5608     44 |        0 |       404      1461 |
|     40374 |    6028   124289 13933560 |    13608     6982     43 |        0 |       456      1655 |
|     60330 |    6028   124784 13942843 |    16003    12733     60 |        0 |       723      2150 |
|     89722 |    6028   124984 13947435 |    19615    16337     71 |        0 |       838      2350 |
|    134620 |    6028   126093 13967768 |    24406    18426     59 |        0 |      1321      3459 |
|    201473 |    6028   127262 13990528 |    30410    18283     46 |        0 |      1780      4628 |
|    301139 |    6028   128402 14009035 |    36415    35954     68 |        0 |      2325      5768 |
|    452917 |    6028   132391 14081591 |    46014    25331     47 |        0 |      3328      9757 |
|    680736 |    6028   138527 14175723 |    55619    52355     72 |        0 |      4994     15893 |
|   1016770 |    6028   142036 14243564 |    68831    49601     56 |        0 |      6455     19402 |
|   1520217 |    6028   146695 14340439 |    84411    59028     47 |        0 |      8014     24061 |
|   2272642 |    6028   150938 14427139 |   103617    64259     41 |        0 |      9403     28304 |
|   3414500 |    5967   101438  9052704 |   126398   119298     79 |        0 |     19035     47888 |
|   5135429 |    5941   117232  8485706 |   134990    58819     36 |        2 |     33863     85404 |
=====================================================================================================
Number of solutions   : 10
Canonical subgraphs   : 42580          (16 /sec)
          order  3    : 1              (166667 /sec)
          order  4    : 1              (500000 /sec)
          order  5    : 1              (250000 /sec)
          order  6    : 1              (52632 /sec)
          order  7    : 1              (8264 /sec)
          order  8    : 2              (1359 /sec)
          order  9    : 2              (600 /sec)
          order 10    : 3              (314 /sec)
          order 11    : 12             (170 /sec)
          order 12    : 24             (111 /sec)
          order 13    : 123            (70 /sec)
          order 14    : 235            (51 /sec)
          order 15    : 1908           (32 /sec)
          order 16    : 9797           (23 /sec)
          order 17    : 13874          (16 /sec)
          order 18    : 9280           (12 /sec)
          order 19    : 2650           (13 /sec)
          order 20    : 2286           (17 /sec)
          order 21    : 2369           (16 /sec)
          order 22    : 10             (1 /sec)
Noncanonical subgraphs: 103263         (114 /sec)
          order  3    : 0              (-nan /sec)
          order  4    : 0              (-nan /sec)
          order  5    : 0              (-nan /sec)
          order  6    : 0              (-nan /sec)
          order  7    : 0              (-nan /sec)
          order  8    : 0              (-nan /sec)
          order  9    : 0              (-nan /sec)
          order 10    : 0              (-nan /sec)
          order 11    : 0              (-nan /sec)
          order 12    : 0              (-nan /sec)
          order 13    : 372            (17751 /sec)
          order 14    : 1010           (8317 /sec)
          order 15    : 7305           (1356 /sec)
          order 16    : 21570          (478 /sec)
          order 17    : 65593          (115 /sec)
          order 18    : 4067           (47 /sec)
          order 19    : 23             (380 /sec)
          order 20    : 18             (181 /sec)
          order 21    : 33             (151 /sec)
Canonicity checking   : 2620.72 s
Noncanonicity checking: 907.615 s
Total canonicity time : 3528.33 s
database reductions   : 149
restarts              : 11261
conflicts             : 6937482        (1286 /sec)
decisions             : 8516623        (0.00 % random) (1579 /sec)
propagations          : 668422737      (123952 /sec)
conflict literals     : 700281535      (57.70 % deleted)
actual reward         : 0.127192
Memory used           : 237.00 MB
CPU time              : 5392.57 s

UNSATISFIABLE
